24778.88,52.71,58.05
23423.07,55.76,61.41
24921.11,52.41,57.72
30289.26,43.12,47.49
31244.21,41.81,46.04
26608.11,49.09,54.06
26426.34,49.43,54.43
33859.06,38.58,42.48
29541.4,44.22,48.69
25553.84,51.11,56.29
30293.34,43.12,47.48
30269.87,43.15,47.52
35169.77,37.14,40.9
25741.38,50.74,55.88
29455.93,44.34,48.83
31335.83,41.68,45.9
25636.24,50.95,56.11
31099.92,42.0,46.25
26361.88,49.55,54.56
29737.22,43.92,48.37
